Minimize
  - 18 y_1 - 13 y_2 - 23 y_3 - 8 y_4 - 16 y_5 - 8 y_6 - 24 y_7 - 9 y_8
   - 16 y_9 - 13 y_10 - 19 y_11 - 19 y_12 - 22 y_13 - 21 y_14 - 35 y_15
   - 6 y_16 - 5 y_17 - 27 y_18 - 17 y_19 - 24 y_20 - 24 y_21 - 29 y_22
   - 16 y_23 - 23 y_24 - 26 y_25 - 18 y_26 - 5 y_27 - 15 y_28 - 28 y_29
   - 24 y_30 - 24 y_31 - 25 y_32 - 9 y_33 - 17 y_34 - 23 y_35 - 23 y_36
   - 35 y_37 - 18 y_38 - 10 y_39 - 9 y_40 - 22 y_41 - 19 y_42 - 27 y_43
   - 18 y_44 - 18 y_45 - 29 y_46 - 30 y_47 - 21 y_48 - 13 y_49 - 20 y_50
   - 18 y_51 - 17 y_52 - 30 y_53 - 22 y_54 - 31 y_55 - 15 y_56 - 24 y_57
   - 31 y_58 - 19 y_59 - 9 y_60 - 26 y_61 - 16 y_62 - 26 y_63 - 14 y_64
   - 20 y_65 - 10 y_66 - 27 y_67 - 27 y_68 - 27 y_69 - 32 y_70 - 18 y_71
   - 36 y_72 - 19 y_73 - 11 y_74 - 21 y_75 - 22 y_76 - 22 y_77 - 12 y_78
   - 10 y_79 - 22 y_80 - 13 y_81 - 16 y_82 - 22 y_83 - 6 y_84 - 31 y_85
   - 12 y_86 - 19 y_87 - 16 y_88 - 25 y_89 - 17 y_90 - 32 y_91 - 14 y_92
   - 26 y_93 - 7 y_94 - 10 y_95 - 27 y_96 - 13 y_97 - 17 y_98 - 17 y_99
   + 1935 Constant
Subject To
 c_0: y_61 = 1
 c_1_0: y_0 + y_4 + y_6 + y_8 + y_16 + y_17 + y_27 + y_33 + y_40 + y_60
   + y_66 + y_79 + y_84 + y_94 + y_95 >= 1
 c_1_1: y_1 + y_2 + y_10 + y_23 + y_28 + y_36 + y_42 + y_45 + y_67 + y_81
   + y_88 + y_93 >= 1
 c_1_2: y_1 + y_2 + y_23 + y_40 + y_42 + y_45 + y_56 + y_66 + y_78 + y_81
   + y_88 >= 1
 c_1_3: y_3 + y_14 + y_18 + y_19 + y_21 + y_24 + y_29 + y_30 + y_31 + y_34
   + y_35 + y_41 + y_51 + y_57 + y_65 + y_75 + y_89 >= 1
 c_1_4: y_0 + y_4 + y_6 + y_8 + y_16 + y_66 + y_79 + y_84 + y_97 >= 1
 c_1_5: y_5 + y_44 + y_52 + y_66 + y_78 + y_84 + y_97 >= 1
 c_1_6: y_0 + y_4 + y_6 + y_8 + y_16 + y_19 + y_27 + y_34 + y_39 + y_79
   + y_84 + y_92 >= 1
 c_1_7: y_7 + y_9 + y_11 + y_48 + y_50 + y_59 + y_68 + y_76 + y_77 + y_98
   >= 1
 c_1_8: y_0 + y_4 + y_6 + y_8 + y_16 + y_27 + y_38 + y_39 + y_49 + y_62
   + y_79 + y_82 + y_92 >= 1
 c_1_9: y_7 + y_9 + y_11 + y_39 + y_48 + y_49 + y_50 + y_59 + y_62 + y_74
   + y_76 + y_77 + y_82 + y_90 + y_98 + y_99 >= 1
 c_1_10: y_1 + y_10 + y_12 + y_13 + y_17 + y_26 + y_28 + y_33 + y_36 + y_60
   + y_64 + y_71 + y_74 + y_81 + y_86 + y_87 + y_94 + y_95 >= 1
 c_1_11: y_7 + y_9 + y_11 + y_39 + y_48 + y_49 + y_50 + y_59 + y_62 + y_68
   + y_76 + y_77 + y_82 + y_98 >= 1
 c_1_12: y_10 + y_12 + y_26 + y_28 + y_32 + y_43 + y_54 + y_60 + y_64
   + y_71 + y_73 + y_74 + y_86 + y_87 + y_90 + y_95 + y_99 >= 1
 c_1_13: y_10 + y_13 + y_26 + y_28 + y_32 + y_36 + y_43 + y_47 + y_71
   + y_85 + y_86 + y_87 >= 1
 c_1_14: y_3 + y_14 + y_19 + y_21 + y_24 + y_31 + y_34 + y_38 + y_41 + y_51
   + y_57 + y_75 + y_83 >= 1
 c_1_15: y_15 + y_22 + y_37 + y_46 + y_53 + y_70 + y_72 >= 1
 c_1_16: y_0 + y_4 + y_6 + y_8 + y_16 + y_17 + y_27 + y_39 + y_49 + y_79
   + y_82 + y_92 + y_94 >= 1
 c_1_17: y_0 + y_10 + y_16 + y_17 + y_27 + y_33 + y_39 + y_49 + y_60 + y_64
   + y_74 + y_86 + y_94 + y_95 >= 1
 c_1_18: y_3 + y_18 + y_25 + y_29 + y_30 + y_35 + y_55 + y_57 + y_65 + y_89
   >= 1
 c_1_19: y_3 + y_6 + y_14 + y_19 + y_21 + y_24 + y_31 + y_34 + y_38 + y_41
   + y_51 + y_57 + y_65 + y_75 + y_79 + y_89 >= 1
 c_1_20: y_20 + y_22 + y_46 + y_53 + y_56 + y_70 >= 1
 c_1_21: y_3 + y_14 + y_19 + y_21 + y_24 + y_31 + y_34 + y_38 + y_41 + y_51
   + y_57 + y_75 + y_89 >= 1
 c_1_22: y_15 + y_20 + y_22 + y_37 + y_46 + y_53 + y_70 + y_72 >= 1
 c_1_23: y_1 + y_2 + y_23 + y_40 + y_42 + y_45 + y_56 + y_61 + y_63 + y_81
   + y_88 >= 1
 c_1_24: y_3 + y_14 + y_19 + y_21 + y_24 + y_31 + y_34 + y_38 + y_41 + y_51
   + y_57 + y_75 + y_89 >= 1
 c_1_25: y_18 + y_25 + y_35 + y_44 + y_69 >= 1
 c_1_26: y_10 + y_12 + y_13 + y_26 + y_28 + y_32 + y_33 + y_43 + y_54
   + y_60 + y_64 + y_71 + y_73 + y_74 + y_86 + y_87 + y_90 + y_94 + y_95
   + y_99 >= 1
 c_1_27: y_0 + y_6 + y_8 + y_16 + y_17 + y_27 + y_33 + y_39 + y_49 + y_60
   + y_74 + y_94 + y_95 >= 1
 c_1_28: y_1 + y_10 + y_12 + y_13 + y_26 + y_28 + y_33 + y_36 + y_60 + y_64
   + y_71 + y_81 + y_86 + y_87 + y_94 + y_95 >= 1
 c_1_29: y_3 + y_18 + y_29 + y_30 + y_31 + y_35 + y_55 + y_57 + y_65 + y_89
   >= 1
 c_1_30: y_3 + y_18 + y_29 + y_30 + y_31 + y_35 + y_55 + y_57 + y_65 + y_89
   >= 1
 c_1_31: y_3 + y_14 + y_19 + y_21 + y_24 + y_29 + y_30 + y_31 + y_34 + y_41
   + y_51 + y_57 + y_65 + y_75 + y_89 >= 1
 c_1_32: y_12 + y_13 + y_26 + y_32 + y_43 + y_54 + y_71 + y_73 + y_87 >= 1
 c_1_33: y_0 + y_10 + y_17 + y_26 + y_27 + y_28 + y_33 + y_60 + y_64 + y_71
   + y_74 + y_86 + y_87 + y_90 + y_94 + y_95 >= 1
 c_1_34: y_3 + y_6 + y_14 + y_19 + y_21 + y_24 + y_31 + y_34 + y_38 + y_41
   + y_51 + y_57 + y_65 + y_75 + y_79 + y_89 >= 1
 c_1_35: y_3 + y_18 + y_25 + y_29 + y_30 + y_35 + y_55 + y_57 + y_65 + y_89
   >= 1
 c_1_36: y_1 + y_10 + y_13 + y_28 + y_36 + y_47 + y_67 + y_85 + y_87 + y_91
   >= 1
 c_1_37: y_15 + y_22 + y_37 + y_46 + y_53 + y_58 + y_70 + y_72 >= 1
 c_1_38: y_8 + y_14 + y_19 + y_21 + y_24 + y_34 + y_38 + y_41 + y_51 + y_75
   + y_79 + y_80 + y_83 + y_92 >= 1
 c_1_39: y_6 + y_8 + y_9 + y_11 + y_16 + y_17 + y_27 + y_39 + y_49 + y_62
   + y_74 + y_82 + y_92 + y_98 >= 1
 c_1_40: y_0 + y_2 + y_23 + y_40 + y_42 + y_45 + y_56 + y_66 + y_78 + y_81
   + y_84 + y_88 >= 1
 c_1_41: y_3 + y_14 + y_19 + y_21 + y_24 + y_31 + y_34 + y_38 + y_41 + y_51
   + y_57 + y_75 + y_89 >= 1
 c_1_42: y_1 + y_2 + y_23 + y_40 + y_42 + y_45 + y_56 + y_61 + y_63 + y_81
   + y_88 + y_93 >= 1
 c_1_43: y_12 + y_13 + y_26 + y_32 + y_43 + y_54 + y_71 + y_87 >= 1
 c_1_44: y_5 + y_25 + y_44 + y_52 + y_66 + y_69 + y_78 + y_97 >= 1
 c_1_45: y_1 + y_2 + y_23 + y_40 + y_42 + y_45 + y_56 + y_61 + y_63 + y_81
   + y_88 + y_93 >= 1
 c_1_46: y_15 + y_20 + y_22 + y_37 + y_46 + y_53 + y_70 + y_72 >= 1
 c_1_47: y_13 + y_36 + y_47 + y_67 + y_85 + y_91 >= 1
 c_1_48: y_7 + y_9 + y_11 + y_48 + y_49 + y_50 + y_62 + y_68 + y_76 + y_77
   + y_82 + y_96 >= 1
 c_1_49: y_8 + y_9 + y_11 + y_16 + y_17 + y_27 + y_39 + y_48 + y_49 + y_50
   + y_59 + y_62 + y_74 + y_76 + y_77 + y_82 + y_98 + y_99 >= 1
 c_1_50: y_7 + y_9 + y_11 + y_48 + y_49 + y_50 + y_59 + y_73 + y_76 + y_77
   + y_90 + y_98 + y_99 >= 1
 c_1_51: y_3 + y_14 + y_19 + y_21 + y_24 + y_31 + y_34 + y_38 + y_41 + y_51
   + y_75 + y_79 >= 1
 c_1_52: y_5 + y_44 + y_52 + y_66 + y_69 + y_78 + y_97 >= 1
 c_1_53: y_15 + y_20 + y_22 + y_37 + y_46 + y_53 + y_70 + y_72 >= 1
 c_1_54: y_12 + y_26 + y_32 + y_43 + y_54 + y_59 + y_64 + y_71 + y_73
   + y_87 + y_90 + y_99 >= 1
 c_1_55: y_18 + y_29 + y_30 + y_35 + y_55 + y_57 + y_89 >= 1
 c_1_56: y_2 + y_20 + y_23 + y_40 + y_42 + y_45 + y_56 + y_66 + y_78 + y_81
   + y_88 >= 1
 c_1_57: y_3 + y_14 + y_18 + y_19 + y_21 + y_24 + y_29 + y_30 + y_31 + y_34
   + y_35 + y_41 + y_55 + y_57 + y_65 + y_75 + y_89 >= 1
 c_1_58: y_37 + y_58 + y_63 >= 1
 c_1_59: y_7 + y_9 + y_11 + y_49 + y_50 + y_54 + y_59 + y_73 + y_74 + y_77
   + y_90 + y_98 + y_99 >= 1
 c_1_60: y_0 + y_10 + y_12 + y_17 + y_26 + y_27 + y_28 + y_33 + y_60 + y_64
   + y_71 + y_74 + y_86 + y_87 + y_90 + y_94 + y_95 + y_99 >= 1
 c_1_61: y_23 + y_42 + y_45 + y_61 + y_63 + y_93 >= 1
 c_1_62: y_8 + y_9 + y_11 + y_39 + y_48 + y_49 + y_62 + y_76 + y_77 + y_80
   + y_82 + y_83 + y_92 >= 1
 c_1_63: y_23 + y_42 + y_45 + y_58 + y_61 + y_63 + y_93 >= 1
 c_1_64: y_10 + y_12 + y_17 + y_26 + y_28 + y_33 + y_54 + y_60 + y_64
   + y_71 + y_73 + y_74 + y_86 + y_87 + y_90 + y_94 + y_95 + y_98 + y_99
   >= 1
 c_1_65: y_3 + y_18 + y_19 + y_29 + y_30 + y_31 + y_34 + y_35 + y_57 + y_65
   + y_89 + y_97 >= 1
 c_1_66: y_0 + y_2 + y_4 + y_5 + y_40 + y_44 + y_52 + y_56 + y_66 + y_78
   + y_84 + y_97 >= 1
 c_1_67: y_1 + y_36 + y_47 + y_67 + y_85 + y_93 >= 1
 c_1_68: y_7 + y_11 + y_48 + y_68 + y_76 + y_77 + y_96 >= 1
 c_1_69: y_25 + y_44 + y_52 + y_69 >= 1
 c_1_70: y_15 + y_20 + y_22 + y_37 + y_46 + y_53 + y_70 + y_72 >= 1
 c_1_71: y_10 + y_12 + y_13 + y_26 + y_28 + y_32 + y_33 + y_43 + y_54
   + y_60 + y_64 + y_71 + y_73 + y_74 + y_86 + y_87 + y_90 + y_95 + y_99
   >= 1
 c_1_72: y_15 + y_22 + y_37 + y_46 + y_53 + y_70 + y_72 >= 1
 c_1_73: y_12 + y_26 + y_32 + y_50 + y_54 + y_59 + y_64 + y_71 + y_73
   + y_74 + y_87 + y_90 + y_95 + y_98 + y_99 >= 1
 c_1_74: y_9 + y_10 + y_12 + y_17 + y_26 + y_27 + y_33 + y_39 + y_49 + y_59
   + y_60 + y_64 + y_71 + y_73 + y_74 + y_86 + y_90 + y_94 + y_95 + y_98
   + y_99 >= 1
 c_1_75: y_3 + y_14 + y_19 + y_21 + y_24 + y_31 + y_34 + y_38 + y_41 + y_51
   + y_57 + y_75 + y_89 >= 1
 c_1_76: y_7 + y_9 + y_11 + y_48 + y_49 + y_50 + y_62 + y_68 + y_76 + y_77
   + y_82 + y_96 >= 1
 c_1_77: y_7 + y_9 + y_11 + y_48 + y_49 + y_50 + y_59 + y_62 + y_68 + y_76
   + y_77 + y_82 + y_96 + y_98 >= 1
 c_1_78: y_2 + y_5 + y_40 + y_44 + y_52 + y_56 + y_66 + y_78 + y_84 >= 1
 c_1_79: y_0 + y_4 + y_6 + y_8 + y_16 + y_19 + y_34 + y_38 + y_51 + y_79
   + y_84 + y_97 >= 1
 c_1_80: y_38 + y_62 + y_80 + y_83 + y_92 >= 1
 c_1_81: y_1 + y_2 + y_10 + y_23 + y_28 + y_40 + y_42 + y_45 + y_56 + y_81
   + y_86 + y_88 >= 1
 c_1_82: y_8 + y_9 + y_11 + y_16 + y_39 + y_48 + y_49 + y_62 + y_76 + y_77
   + y_82 + y_92 >= 1
 c_1_83: y_14 + y_38 + y_62 + y_80 + y_83 + y_92 >= 1
 c_1_84: y_0 + y_4 + y_5 + y_6 + y_40 + y_66 + y_78 + y_79 + y_84 + y_97
   >= 1
 c_1_85: y_13 + y_36 + y_47 + y_67 + y_85 + y_91 >= 1
 c_1_86: y_10 + y_12 + y_13 + y_17 + y_26 + y_28 + y_33 + y_60 + y_64
   + y_71 + y_74 + y_81 + y_86 + y_87 + y_90 + y_94 + y_95 >= 1
 c_1_87: y_10 + y_12 + y_13 + y_26 + y_28 + y_32 + y_33 + y_36 + y_43
   + y_54 + y_60 + y_64 + y_71 + y_73 + y_86 + y_87 + y_90 + y_95 + y_99
   >= 1
 c_1_88: y_1 + y_2 + y_23 + y_40 + y_42 + y_45 + y_56 + y_81 + y_88 >= 1
 c_1_89: y_3 + y_18 + y_19 + y_21 + y_24 + y_29 + y_30 + y_31 + y_34 + y_35
   + y_41 + y_55 + y_57 + y_65 + y_75 + y_89 >= 1
 c_1_90: y_9 + y_12 + y_26 + y_33 + y_50 + y_54 + y_59 + y_60 + y_64 + y_71
   + y_73 + y_74 + y_86 + y_87 + y_90 + y_94 + y_95 + y_98 + y_99 >= 1
 c_1_91: y_36 + y_47 + y_85 + y_91 >= 1
 c_1_92: y_6 + y_8 + y_16 + y_38 + y_39 + y_62 + y_80 + y_82 + y_83 + y_92
   >= 1
 c_1_93: y_1 + y_42 + y_45 + y_61 + y_63 + y_67 + y_93 >= 1
 c_1_94: y_0 + y_10 + y_16 + y_17 + y_26 + y_27 + y_28 + y_33 + y_60 + y_64
   + y_74 + y_86 + y_90 + y_94 + y_95 >= 1
 c_1_95: y_0 + y_10 + y_12 + y_17 + y_26 + y_27 + y_28 + y_33 + y_60 + y_64
   + y_71 + y_73 + y_74 + y_86 + y_87 + y_90 + y_94 + y_95 + y_99 >= 1
 c_1_96: y_48 + y_68 + y_76 + y_77 + y_96 >= 1
 c_1_97: y_4 + y_5 + y_44 + y_52 + y_65 + y_66 + y_79 + y_84 + y_97 >= 1
 c_1_98: y_7 + y_9 + y_11 + y_39 + y_49 + y_50 + y_59 + y_64 + y_73 + y_74
   + y_77 + y_90 + y_98 + y_99 >= 1
 c_1_99: y_9 + y_12 + y_26 + y_49 + y_50 + y_54 + y_59 + y_60 + y_64 + y_71
   + y_73 + y_74 + y_87 + y_90 + y_95 + y_98 + y_99 >= 1
Bounds
 Constant = 1
Binaries
 y_0 y_1 y_2 y_3 y_4 y_5 y_6 y_7 y_8 y_9 y_10 y_11 y_12 y_13 y_14 y_15 y_16
 y_17 y_18 y_19 y_20 y_21 y_22 y_23 y_24 y_25 y_26 y_27 y_28 y_29 y_30 y_31
 y_32 y_33 y_34 y_35 y_36 y_37 y_38 y_39 y_40 y_41 y_42 y_43 y_44 y_45 y_46
 y_47 y_48 y_49 y_50 y_51 y_52 y_53 y_54 y_55 y_56 y_57 y_58 y_59 y_60 y_61
 y_62 y_63 y_64 y_65 y_66 y_67 y_68 y_69 y_70 y_71 y_72 y_73 y_74 y_75 y_76
 y_77 y_78 y_79 y_80 y_81 y_82 y_83 y_84 y_85 y_86 y_87 y_88 y_89 y_90 y_91
 y_92 y_93 y_94 y_95 y_96 y_97 y_98 y_99
End
